c description: Random 3-CNF over 21 variables and 89 clauses
c generator: CNFgen (0.9.2)
c copyright: (C) 2012-2022 Massimo Lauria <massimo.lauria@uniroma1.it>
c url: https://massimolauria.net/cnfgen
c command line: cnfgen --output CNF_4.28/21_bit_89_798.cnf randkcnf 3 21 89
c
p cnf 21 89
1 -4 -9 0
5 -8 20 0
5 6 -10 0
4 -10 -18 0
-5 -11 -19 0
2 8 10 0
1 13 14 0
-3 11 -20 0
13 15 18 0
-2 10 21 0
-3 13 -14 0
1 12 -19 0
-2 -5 -16 0
-3 7 15 0
2 12 -14 0
10 -11 -18 0
1 -8 10 0
4 -11 -14 0
-4 14 18 0
-3 11 14 0
-6 -7 -15 0
-7 9 -18 0
1 10 -17 0
-3 -5 -17 0
1 -5 10 0
-13 -15 -17 0
13 14 -19 0
6 18 -19 0
4 -9 12 0
-9 -17 -21 0
9 11 -20 0
1 -5 6 0
3 6 -15 0
6 13 15 0
1 2 -21 0
1 -8 13 0
-8 12 -15 0
5 14 20 0
-1 -4 10 0
7 18 -20 0
-4 -11 16 0
-8 -9 -19 0
7 9 21 0
-2 6 15 0
4 -8 10 0
-4 8 17 0
6 -9 -19 0
-5 9 -11 0
9 -16 -19 0
-7 -8 19 0
-2 -17 20 0
8 10 13 0
-5 -6 8 0
-16 17 -19 0
11 -17 21 0
-3 4 19 0
-6 -19 -20 0
13 -18 19 0
2 -17 -20 0
-4 13 -14 0
7 -10 14 0
2 5 -19 0
3 -16 -20 0
-3 -12 16 0
-6 12 -15 0
-1 -2 11 0
-13 18 19 0
3 19 -20 0
-2 14 -19 0
-1 -5 6 0
5 9 -13 0
12 -15 -21 0
6 10 -20 0
3 -8 -16 0
-8 15 16 0
-7 14 20 0
-7 10 -13 0
1 -7 -12 0
3 -6 13 0
-1 -10 -18 0
8 10 16 0
2 5 10 0
16 -17 -19 0
1 4 20 0
-1 -8 -9 0
4 14 -15 0
4 6 13 0
9 -18 -20 0
-1 -7 20 0
